4 
5  28 51 
6  06 21 31 39 46 54 
7  01 09 16 24 31 39 46 54 
8  01 09 16 24 31 39 46 54 
9  01 09 16 24 39 54 
10  09 24 39 54 
11  09 24 39 54 
12  09 24 39 54 
13  08 23 38 53 
14  08 23 38 53 
15  08 16 23 31 38 46 53 
16  01 08 16 23 31 38 46 53 
17  01 08 16 23 31 38 46 53 
18  00 08 15 23 30 38 45 53 
19  09 24 39 54 
20  09 26 41 56 
21  11 26 41 56 
22  11 26 41 56 
23  13 
0 
